20170926 120 0 0 0
20160926 115 0 0 0
20160624 160 0 0 0
20160226 75 0 0 0
20150707 110 0 0 0
20150109 75 0 0 0
20140625 100 2000 0 0
20130910 158 0 0 0
20130627 150 0 0 0
20120903 150 0 0 0
20120626 300 0 0 0
20110609 100 0 0 0
20100715 50 2000 0 0
20090526 80 0 0 0
20080407 50 3000 0 0
20070611 0 1900 0 0
20060417 50 4000 0 0
20051026 0 5024 0 0
20050418 70 2000 0 0
20040419 120 3500 0 0
20030414 60 3000 0 0
20020619 70 1500 0 0
20010531 200 3000 0 0
